ID_groupA,ID_groupB
318,122
318,445
318,445
886,445
318,955
318,445
318,122
318,445
318,122
318,122
318,445
318,445
318,122
318,122
2512,122
318,122
886,122
318,122
318,122
85,2712
318,122
318,122
318,122
318,122
318,122
85,122
85,122
2512,445
886,445
318,445
2512,445
2512,2712
2512,445
2512,122
318,445
2512,445
2512,445
2512,2712
2512,122
886,445
318,445
318,445
2512,445
318,445
318,445
318,445
318,445
318,445
85,445
318,445
886,955
886,445
886,445
886,445
318,122
318,445
886,1336
886,445
886,445
318,122
318,445
318,122
318,445
318,122
2979,955
886,955
318,445
318,122
318,122
2512,445
318,445
318,445
318,445
318,445
318,445
85,445
318,445
85,2712
85,122
85,122
85,122
85,2712
85,2712
85,122
318,445
318,445
318,445
318,445
2512,2712
318,122
318,122
318,122
318,122
85,122
318,122
886,955
318,445
318,122
318,122
886,445
318,122
318,122
318,122
318,122
85,122
